n_res = 4;
rc = [ 0, 0, 0, 0 ];
n_tasks = 30;
d = [ 10, 4, 6, 8, 7, 10, 8, 3, 7, 5, 5, 9, 1, 9, 5, 4, 8, 8, 6, 4, 3, 4, 4, 2, 5, 7, 9, 1, 5, 9 ];
rr = [| 0, 0, 0, 0, 0, 0, 0, 0, 0, 0, 0, 0, 0, 0, 0, 0, 0, 0, 0, 0, 0, 0, 0, 0, 0, 0, 0, 0, 0, 0
      | 0, 0, 0, 0, 0, 0, 0, 0, 0, 0, 0, 0, 0, 0, 0, 0, 0, 0, 0, 0, 0, 0, 0, 0, 0, 0, 0, 0, 0, 0
      | 0, 0, 0, 0, 0, 0, 0, 0, 0, 0, 0, 0, 0, 0, 0, 0, 0, 0, 0, 0, 0, 0, 0, 0, 0, 0, 0, 0, 0, 0
      | 0, 0, 0, 0, 0, 0, 0, 0, 0, 0, 0, 0, 0, 0, 0, 0, 0, 0, 0, 0, 0, 0, 0, 0, 0, 0, 0, 0, 0, 0 |];
suc = [ { 9, 11, 15 },
       { 5, 17, 23 },
       { 4, 6, 27 },
       { 10, 14 },
       { 7 },
       { 8, 18 },
       { 21 },
       { 22 },
       { 12, 13, 28 },
       { 19, 29 },
       { 13 },
       { 16, 19, 25 },
       { 20 },
       { 26 },
       { 29 },
       { 20 },
       { 21, 24 },
       { 28 },
       { 22 },
       { 24 },
       { 26 },
       { 23 },
       { 30 },
       { 27, 29 },
       { 26 },
       { 30 },
       { 30 },
       {  },
       {  },
       {  } ];
